p wcnf 231 992 230
28 1 0
40 2 0
63 3 0
13 4 0
31 5 0
10 6 0
44 7 0
230 -1 -20 21 0
230 -1 -21 22 0
230 -1 -22 23 0
230 -1 -23 24 0
230 -1 -24 25 0
230 -1 -25 26 0
230 -1 -26 27 0
230 -1 -27 28 0
230 -1 -28 29 0
230 -1 -30 31 0
230 -1 -31 32 0
230 -1 -32 33 0
230 -1 -33 34 0
230 -1 -34 35 0
230 -1 -35 36 0
230 -1 -36 37 0
230 -1 -37 38 0
230 -1 -38 39 0
230 -2 -52 53 0
230 -2 -53 54 0
230 -2 -54 55 0
230 -2 -55 56 0
230 -2 -56 57 0
230 -2 -57 58 0
230 -2 -58 59 0
230 -2 -59 60 0
230 -2 -60 61 0
230 -2 -62 63 0
230 -2 -63 64 0
230 -2 -64 65 0
230 -2 -65 66 0
230 -2 -66 67 0
230 -2 -67 68 0
230 -2 -68 69 0
230 -2 -69 70 0
230 -2 -70 71 0
230 -3 -84 85 0
230 -3 -85 86 0
230 -3 -86 87 0
230 -3 -87 88 0
230 -3 -88 89 0
230 -3 -89 90 0
230 -3 -90 91 0
230 -3 -91 92 0
230 -3 -92 93 0
230 -3 -94 95 0
230 -3 -95 96 0
230 -3 -96 97 0
230 -3 -97 98 0
230 -3 -98 99 0
230 -3 -99 100 0
230 -3 -100 101 0
230 -3 -101 102 0
230 -3 -102 103 0
230 -4 -116 117 0
230 -4 -117 118 0
230 -4 -118 119 0
230 -4 -119 120 0
230 -4 -120 121 0
230 -4 -121 122 0
230 -4 -122 123 0
230 -4 -123 124 0
230 -4 -124 125 0
230 -4 -126 127 0
230 -4 -127 128 0
230 -4 -128 129 0
230 -4 -129 130 0
230 -4 -130 131 0
230 -4 -131 132 0
230 -4 -132 133 0
230 -4 -133 134 0
230 -4 -134 135 0
230 -5 -148 149 0
230 -5 -149 150 0
230 -5 -150 151 0
230 -5 -151 152 0
230 -5 -152 153 0
230 -5 -153 154 0
230 -5 -154 155 0
230 -5 -155 156 0
230 -5 -156 157 0
230 -5 -158 159 0
230 -5 -159 160 0
230 -5 -160 161 0
230 -5 -161 162 0
230 -5 -162 163 0
230 -5 -163 164 0
230 -5 -164 165 0
230 -5 -165 166 0
230 -5 -166 167 0
230 -6 -180 181 0
230 -6 -181 182 0
230 -6 -182 183 0
230 -6 -183 184 0
230 -6 -184 185 0
230 -6 -185 186 0
230 -6 -186 187 0
230 -6 -187 188 0
230 -6 -188 189 0
230 -6 -190 191 0
230 -6 -191 192 0
230 -6 -192 193 0
230 -6 -193 194 0
230 -6 -194 195 0
230 -6 -195 196 0
230 -6 -196 197 0
230 -6 -197 198 0
230 -6 -198 199 0
230 -7 -212 213 0
230 -7 -213 214 0
230 -7 -214 215 0
230 -7 -215 216 0
230 -7 -216 217 0
230 -7 -217 218 0
230 -7 -218 219 0
230 -7 -219 220 0
230 -7 -220 221 0
230 -7 -222 223 0
230 -7 -223 224 0
230 -7 -224 225 0
230 -7 -225 226 0
230 -7 -226 227 0
230 -7 -227 228 0
230 -7 -228 229 0
230 -7 -229 230 0
230 -7 -230 231 0
230 -1 -2 8 40 0
230 -1 -2 -8 -52 0
230 -1 -2 -40 -20 0
230 -1 -2 -40 -21 0
230 -1 -2 -40 -22 0
230 -1 -2 -40 -23 0
230 -1 -2 -40 -24 0
230 -1 -2 -8 20 -53 0
230 -1 -2 -40 52 -25 0
230 -1 -2 -8 21 -54 0
230 -1 -2 -40 53 -26 0
230 -1 -2 -8 22 -55 0
230 -1 -2 -40 54 -27 0
230 -1 -2 -8 23 -56 0
230 -1 -2 -40 55 -28 0
230 -1 -2 -8 24 -57 0
230 -1 -2 -40 56 -29 0
230 -1 -2 -8 25 -58 0
230 -1 -2 -8 26 -59 0
230 -1 -2 -8 27 -60 0
230 -1 -2 -8 28 -61 0
230 -1 -3 10 72 0
230 -1 -3 -10 -84 0
230 -1 -3 -72 -20 0
230 -1 -3 -72 -21 0
230 -1 -3 -72 -22 0
230 -1 -3 -72 -23 0
230 -1 -3 -72 -24 0
230 -1 -3 -72 -25 0
230 -1 -3 -72 -26 0
230 -1 -3 -72 -27 0
230 -1 -3 -72 -28 0
230 -1 -3 -10 20 -85 0
230 -1 -3 -72 84 -29 0
230 -1 -3 -10 21 -86 0
230 -1 -3 -10 22 -87 0
230 -1 -3 -10 23 -88 0
230 -1 -3 -10 24 -89 0
230 -1 -3 -10 25 -90 0
230 -1 -3 -10 26 -91 0
230 -1 -3 -10 27 -92 0
230 -1 -3 -10 28 -93 0
230 -1 -4 12 104 0
230 -1 -4 -12 -116 0
230 -1 -4 -104 -20 0
230 -1 -4 -104 -21 0
230 -1 -4 -104 -22 0
230 -1 -4 -104 -23 0
230 -1 -4 -104 -24 0
230 -1 -4 -104 -25 0
230 -1 -4 -12 20 -117 0
230 -1 -4 -104 116 -26 0
230 -1 -4 -12 21 -118 0
230 -1 -4 -104 117 -27 0
230 -1 -4 -12 22 -119 0
230 -1 -4 -104 118 -28 0
230 -1 -4 -12 23 -120 0
230 -1 -4 -104 119 -29 0
230 -1 -4 -12 24 -121 0
230 -1 -4 -12 25 -122 0
230 -1 -4 -12 26 -123 0
230 -1 -4 -12 27 -124 0
230 -1 -4 -12 28 -125 0
230 -1 -5 14 136 0
230 -1 -5 -14 -148 0
230 -1 -5 -136 -20 0
230 -1 -5 -136 -21 0
230 -1 -5 -136 -22 0
230 -1 -5 -14 20 -149 0
230 -1 -5 -136 148 -23 0
230 -1 -5 -14 21 -150 0
230 -1 -5 -136 149 -24 0
230 -1 -5 -14 22 -151 0
230 -1 -5 -136 150 -25 0
230 -1 -5 -14 23 -152 0
230 -1 -5 -136 151 -26 0
230 -1 -5 -14 24 -153 0
230 -1 -5 -136 152 -27 0
230 -1 -5 -14 25 -154 0
230 -1 -5 -136 153 -28 0
230 -1 -5 -14 26 -155 0
230 -1 -5 -136 154 -29 0
230 -1 -5 -14 27 -156 0
230 -1 -5 -14 28 -157 0
230 -1 -6 16 168 0
230 -1 -6 -16 -180 0
230 -1 -6 -168 -20 0
230 -1 -6 -168 -21 0
230 -1 -6 -168 -22 0
230 -1 -6 -168 -23 0
230 -1 -6 -16 20 -181 0
230 -1 -6 -168 180 -24 0
230 -1 -6 -16 21 -182 0
230 -1 -6 -168 181 -25 0
230 -1 -6 -16 22 -183 0
230 -1 -6 -168 182 -26 0
230 -1 -6 -16 23 -184 0
230 -1 -6 -168 183 -27 0
230 -1 -6 -16 24 -185 0
230 -1 -6 -168 184 -28 0
230 -1 -6 -16 25 -186 0
230 -1 -6 -168 185 -29 0
230 -1 -6 -16 26 -187 0
230 -1 -6 -16 27 -188 0
230 -1 -6 -16 28 -189 0
230 -1 -7 18 200 0
230 -1 -7 -18 -212 0
230 -1 -7 -200 -20 0
230 -1 -7 -200 -21 0
230 -1 -7 -200 -22 0
230 -1 -7 -200 -23 0
230 -1 -7 -200 -24 0
230 -1 -7 -200 -25 0
230 -1 -7 -200 -26 0
230 -1 -7 -18 20 -213 0
230 -1 -7 -200 212 -27 0
230 -1 -7 -18 21 -214 0
230 -1 -7 -200 213 -28 0
230 -1 -7 -18 22 -215 0
230 -1 -7 -200 214 -29 0
230 -1 -7 -18 23 -216 0
230 -1 -7 -18 24 -217 0
230 -1 -7 -18 25 -218 0
230 -1 -7 -18 26 -219 0
230 -1 -7 -18 27 -220 0
230 -1 -7 -18 28 -221 0
230 -2 -3 43 75 0
230 -2 -3 -43 -94 0
230 -2 -3 -43 -95 0
230 -2 -3 -43 -96 0
230 -2 -3 -75 -62 0
230 -2 -3 -75 -63 0
230 -2 -3 -75 -64 0
230 -2 -3 -43 62 -97 0
230 -2 -3 -75 94 -65 0
230 -2 -3 -43 63 -98 0
230 -2 -3 -75 95 -66 0
230 -2 -3 -43 64 -99 0
230 -2 -3 -75 96 -67 0
230 -2 -3 -43 65 -100 0
230 -2 -3 -75 97 -68 0
230 -2 -3 -43 66 -101 0
230 -2 -3 -75 98 -69 0
230 -2 -3 -43 67 -102 0
230 -2 -3 -75 99 -70 0
230 -2 -3 -43 68 -103 0
230 -2 -3 -75 100 -71 0
230 -2 -3 42 74 43 75 0
230 -2 -3 -42 -84 0
230 -2 -3 -42 -85 0
230 -2 -3 -42 -86 0
230 -2 -3 -42 -87 0
230 -2 -3 -42 -88 0
230 -2 -3 -74 -52 0
230 -2 -3 -74 -53 0
230 -2 -3 -74 -54 0
230 -2 -3 -74 -55 0
230 -2 -3 -74 -56 0
230 -2 -3 -74 -57 0
230 -2 -3 -74 -58 0
230 -2 -3 -74 -59 0
230 -2 -3 -74 -60 0
230 -2 -3 -43 -94 0
230 -2 -3 -43 -95 0
230 -2 -3 -43 -96 0
230 -2 -3 -75 -62 0
230 -2 -3 -75 -63 0
230 -2 -3 -75 -64 0
230 -2 -3 -42 52 -89 0
230 -2 -3 -74 84 -61 0
230 -2 -3 -42 53 -90 0
230 -2 -3 -42 54 -91 0
230 -2 -3 -42 55 -92 0
230 -2 -3 -42 56 -93 0
230 -2 -3 -43 62 -97 0
230 -2 -3 -75 94 -65 0
230 -2 -3 -43 63 -98 0
230 -2 -3 -75 95 -66 0
230 -2 -3 -43 64 -99 0
230 -2 -3 -75 96 -67 0
230 -2 -3 -43 65 -100 0
230 -2 -3 -75 97 -68 0
230 -2 -3 -43 66 -101 0
230 -2 -3 -75 98 -69 0
230 -2 -3 -43 67 -102 0
230 -2 -3 -75 99 -70 0
230 -2 -3 -43 68 -103 0
230 -2 -3 -75 100 -71 0
230 -2 -4 45 107 0
230 -2 -4 -45 -126 0
230 -2 -4 -45 -127 0
230 -2 -4 -45 -128 0
230 -2 -4 -107 -62 0
230 -2 -4 -45 62 -129 0
230 -2 -4 -107 126 -63 0
230 -2 -4 -45 63 -130 0
230 -2 -4 -107 127 -64 0
230 -2 -4 -45 64 -131 0
230 -2 -4 -107 128 -65 0
230 -2 -4 -45 65 -132 0
230 -2 -4 -107 129 -66 0
230 -2 -4 -45 66 -133 0
230 -2 -4 -107 130 -67 0
230 -2 -4 -45 67 -134 0
230 -2 -4 -107 131 -68 0
230 -2 -4 -45 68 -135 0
230 -2 -4 -107 132 -69 0
230 -2 -4 44 106 45 107 0
230 -2 -4 -44 -116 0
230 -2 -4 -44 -117 0
230 -2 -4 -44 -118 0
230 -2 -4 -44 -119 0
230 -2 -4 -44 -120 0
230 -2 -4 -106 -52 0
230 -2 -4 -106 -53 0
230 -2 -4 -106 -54 0
230 -2 -4 -106 -55 0
230 -2 -4 -106 -56 0
230 -2 -4 -106 -57 0
230 -2 -4 -45 -126 0
230 -2 -4 -45 -127 0
230 -2 -4 -45 -128 0
230 -2 -4 -107 -62 0
230 -2 -4 -44 52 -121 0
230 -2 -4 -106 116 -58 0
230 -2 -4 -44 53 -122 0
230 -2 -4 -106 117 -59 0
230 -2 -4 -44 54 -123 0
230 -2 -4 -106 118 -60 0
230 -2 -4 -44 55 -124 0
230 -2 -4 -106 119 -61 0
230 -2 -4 -44 56 -125 0
230 -2 -4 -45 62 -129 0
230 -2 -4 -107 126 -63 0
230 -2 -4 -45 63 -130 0
230 -2 -4 -107 127 -64 0
230 -2 -4 -45 64 -131 0
230 -2 -4 -107 128 -65 0
230 -2 -4 -45 65 -132 0
230 -2 -4 -107 129 -66 0
230 -2 -4 -45 66 -133 0
230 -2 -4 -107 130 -67 0
230 -2 -4 -45 67 -134 0
230 -2 -4 -107 131 -68 0
230 -2 -4 -45 68 -135 0
230 -2 -4 -107 132 -69 0
230 -2 -5 46 138 0
230 -2 -5 -46 -148 0
230 -2 -5 -46 -149 0
230 -2 -5 -46 -150 0
230 -2 -5 -46 -151 0
230 -2 -5 -46 -152 0
230 -2 -5 -138 -52 0
230 -2 -5 -138 -53 0
230 -2 -5 -138 -54 0
230 -2 -5 -46 52 -153 0
230 -2 -5 -138 148 -55 0
230 -2 -5 -46 53 -154 0
230 -2 -5 -138 149 -56 0
230 -2 -5 -46 54 -155 0
230 -2 -5 -138 150 -57 0
230 -2 -5 -46 55 -156 0
230 -2 -5 -138 151 -58 0
230 -2 -5 -46 56 -157 0
230 -2 -5 -138 152 -59 0
230 -2 -6 48 170 49 171 0
230 -2 -6 -48 -180 0
230 -2 -6 -48 -181 0
230 -2 -6 -48 -182 0
230 -2 -6 -48 -183 0
230 -2 -6 -48 -184 0
230 -2 -6 -170 -52 0
230 -2 -6 -170 -53 0
230 -2 -6 -170 -54 0
230 -2 -6 -170 -55 0
230 -2 -6 -49 -190 0
230 -2 -6 -49 -191 0
230 -2 -6 -49 -192 0
230 -2 -6 -171 -62 0
230 -2 -6 -48 52 -185 0
230 -2 -6 -170 180 -56 0
230 -2 -6 -48 53 -186 0
230 -2 -6 -170 181 -57 0
230 -2 -6 -48 54 -187 0
230 -2 -6 -170 182 -58 0
230 -2 -6 -48 55 -188 0
230 -2 -6 -170 183 -59 0
230 -2 -6 -48 56 -189 0
230 -2 -6 -170 184 -60 0
230 -2 -6 -49 62 -193 0
230 -2 -6 -171 190 -63 0
230 -2 -6 -49 63 -194 0
230 -2 -6 -171 191 -64 0
230 -2 -6 -49 64 -195 0
230 -2 -6 -171 192 -65 0
230 -2 -6 -49 65 -196 0
230 -2 -6 -171 193 -66 0
230 -2 -6 -49 66 -197 0
230 -2 -6 -171 194 -67 0
230 -2 -6 -49 67 -198 0
230 -2 -6 -171 195 -68 0
230 -2 -6 -49 68 -199 0
230 -2 -6 -171 196 -69 0
230 -2 -7 51 203 0
230 -2 -7 -51 -222 0
230 -2 -7 -51 -223 0
230 -2 -7 -51 -224 0
230 -2 -7 -203 -62 0
230 -2 -7 -203 -63 0
230 -2 -7 -203 -64 0
230 -2 -7 -51 62 -225 0
230 -2 -7 -203 222 -65 0
230 -2 -7 -51 63 -226 0
230 -2 -7 -203 223 -66 0
230 -2 -7 -51 64 -227 0
230 -2 -7 -203 224 -67 0
230 -2 -7 -51 65 -228 0
230 -2 -7 -203 225 -68 0
230 -2 -7 -51 66 -229 0
230 -2 -7 -203 226 -69 0
230 -2 -7 -51 67 -230 0
230 -2 -7 -203 227 -70 0
230 -2 -7 -51 68 -231 0
230 -2 -7 -203 228 -71 0
230 -2 -7 50 202 51 203 0
230 -2 -7 -50 -212 0
230 -2 -7 -50 -213 0
230 -2 -7 -50 -214 0
230 -2 -7 -50 -215 0
230 -2 -7 -50 -216 0
230 -2 -7 -202 -52 0
230 -2 -7 -202 -53 0
230 -2 -7 -202 -54 0
230 -2 -7 -202 -55 0
230 -2 -7 -202 -56 0
230 -2 -7 -202 -57 0
230 -2 -7 -202 -58 0
230 -2 -7 -51 -222 0
230 -2 -7 -51 -223 0
230 -2 -7 -51 -224 0
230 -2 -7 -203 -62 0
230 -2 -7 -203 -63 0
230 -2 -7 -203 -64 0
230 -2 -7 -50 52 -217 0
230 -2 -7 -202 212 -59 0
230 -2 -7 -50 53 -218 0
230 -2 -7 -202 213 -60 0
230 -2 -7 -50 54 -219 0
230 -2 -7 -202 214 -61 0
230 -2 -7 -50 55 -220 0
230 -2 -7 -50 56 -221 0
230 -2 -7 -51 62 -225 0
230 -2 -7 -203 222 -65 0
230 -2 -7 -51 63 -226 0
230 -2 -7 -203 223 -66 0
230 -2 -7 -51 64 -227 0
230 -2 -7 -203 224 -67 0
230 -2 -7 -51 65 -228 0
230 -2 -7 -203 225 -68 0
230 -2 -7 -51 66 -229 0
230 -2 -7 -203 226 -69 0
230 -2 -7 -51 67 -230 0
230 -2 -7 -203 227 -70 0
230 -2 -7 -51 68 -231 0
230 -2 -7 -203 228 -71 0
230 -3 -4 77 109 0
230 -3 -4 -77 -126 0
230 -3 -4 -77 -127 0
230 -3 -4 -77 -128 0
230 -3 -4 -109 -94 0
230 -3 -4 -77 94 -129 0
230 -3 -4 -109 126 -95 0
230 -3 -4 -77 95 -130 0
230 -3 -4 -109 127 -96 0
230 -3 -4 -77 96 -131 0
230 -3 -4 -109 128 -97 0
230 -3 -4 -77 97 -132 0
230 -3 -4 -109 129 -98 0
230 -3 -4 -77 98 -133 0
230 -3 -4 -109 130 -99 0
230 -3 -4 -77 99 -134 0
230 -3 -4 -109 131 -100 0
230 -3 -4 -77 100 -135 0
230 -3 -4 -109 132 -101 0
230 -3 -4 108 77 109 0
230 -3 -4 -108 -84 0
230 -3 -4 -108 -85 0
230 -3 -4 -108 -86 0
230 -3 -4 -108 -87 0
230 -3 -4 -108 -88 0
230 -3 -4 -108 -89 0
230 -3 -4 -77 -126 0
230 -3 -4 -77 -127 0
230 -3 -4 -77 -128 0
230 -3 -4 -109 -94 0
230 -3 -4 -108 116 -90 0
230 -3 -4 -77 94 -129 0
230 -3 -4 -109 126 -95 0
230 -3 -4 -77 95 -130 0
230 -3 -4 -109 127 -96 0
230 -3 -4 -77 96 -131 0
230 -3 -4 -109 128 -97 0
230 -3 -4 -77 97 -132 0
230 -3 -4 -109 129 -98 0
230 -3 -4 -77 98 -133 0
230 -3 -4 -109 130 -99 0
230 -3 -4 -77 99 -134 0
230 -3 -4 -109 131 -100 0
230 -3 -4 -77 100 -135 0
230 -3 -4 -109 132 -101 0
230 -3 -5 79 141 0
230 -3 -5 -79 -158 0
230 -3 -5 -79 -159 0
230 -3 -5 -79 -160 0
230 -3 -5 -141 -94 0
230 -3 -5 -141 -95 0
230 -3 -5 -141 -96 0
230 -3 -5 -141 -97 0
230 -3 -5 -141 -98 0
230 -3 -5 -141 -99 0
230 -3 -5 -141 -100 0
230 -3 -5 -141 -101 0
230 -3 -5 -79 94 -161 0
230 -3 -5 -141 158 -102 0
230 -3 -5 -79 95 -162 0
230 -3 -5 -141 159 -103 0
230 -3 -5 -79 96 -163 0
230 -3 -5 -79 97 -164 0
230 -3 -5 -79 98 -165 0
230 -3 -5 -79 99 -166 0
230 -3 -5 -79 100 -167 0
230 -3 -5 78 140 0
230 -3 -5 -78 -148 0
230 -3 -5 -78 -149 0
230 -3 -5 -78 -150 0
230 -3 -5 -78 -151 0
230 -3 -5 -78 -152 0
230 -3 -5 -78 -153 0
230 -3 -5 -78 -154 0
230 -3 -5 -78 -155 0
230 -3 -5 -78 -156 0
230 -3 -5 -140 -84 0
230 -3 -5 -140 -85 0
230 -3 -5 -140 -86 0
230 -3 -5 -78 84 -157 0
230 -3 -5 -140 148 -87 0
230 -3 -6 81 173 0
230 -3 -6 -81 -190 0
230 -3 -6 -81 -191 0
230 -3 -6 -81 -192 0
230 -3 -6 -173 -94 0
230 -3 -6 -81 94 -193 0
230 -3 -6 -173 190 -95 0
230 -3 -6 -81 95 -194 0
230 -3 -6 -173 191 -96 0
230 -3 -6 -81 96 -195 0
230 -3 -6 -173 192 -97 0
230 -3 -6 -81 97 -196 0
230 -3 -6 -173 193 -98 0
230 -3 -6 -81 98 -197 0
230 -3 -6 -173 194 -99 0
230 -3 -6 -81 99 -198 0
230 -3 -6 -173 195 -100 0
230 -3 -6 -81 100 -199 0
230 -3 -6 -173 196 -101 0
230 -3 -6 172 81 173 0
230 -3 -6 -172 -84 0
230 -3 -6 -172 -85 0
230 -3 -6 -172 -86 0
230 -3 -6 -172 -87 0
230 -3 -6 -81 -190 0
230 -3 -6 -81 -191 0
230 -3 -6 -81 -192 0
230 -3 -6 -173 -94 0
230 -3 -6 -172 180 -88 0
230 -3 -6 -81 94 -193 0
230 -3 -6 -173 190 -95 0
230 -3 -6 -81 95 -194 0
230 -3 -6 -173 191 -96 0
230 -3 -6 -81 96 -195 0
230 -3 -6 -173 192 -97 0
230 -3 -6 -81 97 -196 0
230 -3 -6 -173 193 -98 0
230 -3 -6 -81 98 -197 0
230 -3 -6 -173 194 -99 0
230 -3 -6 -81 99 -198 0
230 -3 -6 -173 195 -100 0
230 -3 -6 -81 100 -199 0
230 -3 -6 -173 196 -101 0
230 -3 -7 83 205 0
230 -3 -7 -83 -222 0
230 -3 -7 -83 -223 0
230 -3 -7 -83 -224 0
230 -3 -7 -205 -94 0
230 -3 -7 -205 -95 0
230 -3 -7 -205 -96 0
230 -3 -7 -83 94 -225 0
230 -3 -7 -205 222 -97 0
230 -3 -7 -83 95 -226 0
230 -3 -7 -205 223 -98 0
230 -3 -7 -83 96 -227 0
230 -3 -7 -205 224 -99 0
230 -3 -7 -83 97 -228 0
230 -3 -7 -205 225 -100 0
230 -3 -7 -83 98 -229 0
230 -3 -7 -205 226 -101 0
230 -3 -7 -83 99 -230 0
230 -3 -7 -205 227 -102 0
230 -3 -7 -83 100 -231 0
230 -3 -7 -205 228 -103 0
230 -3 -7 204 83 205 0
230 -3 -7 -204 -84 0
230 -3 -7 -204 -85 0
230 -3 -7 -204 -86 0
230 -3 -7 -204 -87 0
230 -3 -7 -204 -88 0
230 -3 -7 -204 -89 0
230 -3 -7 -204 -90 0
230 -3 -7 -83 -222 0
230 -3 -7 -83 -223 0
230 -3 -7 -83 -224 0
230 -3 -7 -205 -94 0
230 -3 -7 -205 -95 0
230 -3 -7 -205 -96 0
230 -3 -7 -204 212 -91 0
230 -3 -7 -83 94 -225 0
230 -3 -7 -205 222 -97 0
230 -3 -7 -83 95 -226 0
230 -3 -7 -205 223 -98 0
230 -3 -7 -83 96 -227 0
230 -3 -7 -205 224 -99 0
230 -3 -7 -83 97 -228 0
230 -3 -7 -205 225 -100 0
230 -3 -7 -83 98 -229 0
230 -3 -7 -205 226 -101 0
230 -3 -7 -83 99 -230 0
230 -3 -7 -205 227 -102 0
230 -3 -7 -83 100 -231 0
230 -3 -7 -205 228 -103 0
230 -4 -5 110 142 111 143 0
230 -4 -5 -110 -148 0
230 -4 -5 -110 -149 0
230 -4 -5 -110 -150 0
230 -4 -5 -110 -151 0
230 -4 -5 -110 -152 0
230 -4 -5 -110 -153 0
230 -4 -5 -142 -116 0
230 -4 -5 -142 -117 0
230 -4 -5 -142 -118 0
230 -4 -5 -111 -158 0
230 -4 -5 -143 -126 0
230 -4 -5 -143 -127 0
230 -4 -5 -143 -128 0
230 -4 -5 -143 -129 0
230 -4 -5 -143 -130 0
230 -4 -5 -143 -131 0
230 -4 -5 -143 -132 0
230 -4 -5 -143 -133 0
230 -4 -5 -110 116 -154 0
230 -4 -5 -142 148 -119 0
230 -4 -5 -110 117 -155 0
230 -4 -5 -142 149 -120 0
230 -4 -5 -110 118 -156 0
230 -4 -5 -142 150 -121 0
230 -4 -5 -110 119 -157 0
230 -4 -5 -142 151 -122 0
230 -4 -5 -111 126 -159 0
230 -4 -5 -143 158 -134 0
230 -4 -5 -111 127 -160 0
230 -4 -5 -143 159 -135 0
230 -4 -5 -111 128 -161 0
230 -4 -5 -111 129 -162 0
230 -4 -5 -111 130 -163 0
230 -4 -5 -111 131 -164 0
230 -4 -5 -111 132 -165 0
230 -4 -5 -111 133 -166 0
230 -4 -5 -111 134 -167 0
230 -4 -6 112 174 113 175 0
230 -4 -6 -112 -180 0
230 -4 -6 -112 -181 0
230 -4 -6 -112 -182 0
230 -4 -6 -112 -183 0
230 -4 -6 -112 -184 0
230 -4 -6 -112 -185 0
230 -4 -6 -174 -116 0
230 -4 -6 -174 -117 0
230 -4 -6 -174 -118 0
230 -4 -6 -174 -119 0
230 -4 -6 -113 -190 0
230 -4 -6 -175 -126 0
230 -4 -6 -112 116 -186 0
230 -4 -6 -174 180 -120 0
230 -4 -6 -112 117 -187 0
230 -4 -6 -174 181 -121 0
230 -4 -6 -112 118 -188 0
230 -4 -6 -174 182 -122 0
230 -4 -6 -112 119 -189 0
230 -4 -6 -174 183 -123 0
230 -4 -6 -113 126 -191 0
230 -4 -6 -175 190 -127 0
230 -4 -6 -113 127 -192 0
230 -4 -6 -175 191 -128 0
230 -4 -6 -113 128 -193 0
230 -4 -6 -175 192 -129 0
230 -4 -6 -113 129 -194 0
230 -4 -6 -175 193 -130 0
230 -4 -6 -113 130 -195 0
230 -4 -6 -175 194 -131 0
230 -4 -6 -113 131 -196 0
230 -4 -6 -175 195 -132 0
230 -4 -6 -113 132 -197 0
230 -4 -6 -175 196 -133 0
230 -4 -6 -113 133 -198 0
230 -4 -6 -175 197 -134 0
230 -4 -6 -113 134 -199 0
230 -4 -6 -175 198 -135 0
230 -4 -7 115 207 0
230 -4 -7 -115 -222 0
230 -4 -7 -207 -126 0
230 -4 -7 -207 -127 0
230 -4 -7 -207 -128 0
230 -4 -7 -115 126 -223 0
230 -4 -7 -207 222 -129 0
230 -4 -7 -115 127 -224 0
230 -4 -7 -207 223 -130 0
230 -4 -7 -115 128 -225 0
230 -4 -7 -207 224 -131 0
230 -4 -7 -115 129 -226 0
230 -4 -7 -207 225 -132 0
230 -4 -7 -115 130 -227 0
230 -4 -7 -207 226 -133 0
230 -4 -7 -115 131 -228 0
230 -4 -7 -207 227 -134 0
230 -4 -7 -115 132 -229 0
230 -4 -7 -207 228 -135 0
230 -4 -7 -115 133 -230 0
230 -4 -7 -115 134 -231 0
230 -4 -7 114 206 115 207 0
230 -4 -7 -114 -212 0
230 -4 -7 -114 -213 0
230 -4 -7 -114 -214 0
230 -4 -7 -114 -215 0
230 -4 -7 -114 -216 0
230 -4 -7 -114 -217 0
230 -4 -7 -206 -116 0
230 -4 -7 -206 -117 0
230 -4 -7 -206 -118 0
230 -4 -7 -206 -119 0
230 -4 -7 -206 -120 0
230 -4 -7 -206 -121 0
230 -4 -7 -206 -122 0
230 -4 -7 -115 -222 0
230 -4 -7 -207 -126 0
230 -4 -7 -207 -127 0
230 -4 -7 -207 -128 0
230 -4 -7 -114 116 -218 0
230 -4 -7 -206 212 -123 0
230 -4 -7 -114 117 -219 0
230 -4 -7 -206 213 -124 0
230 -4 -7 -114 118 -220 0
230 -4 -7 -206 214 -125 0
230 -4 -7 -114 119 -221 0
230 -4 -7 -115 126 -223 0
230 -4 -7 -207 222 -129 0
230 -4 -7 -115 127 -224 0
230 -4 -7 -207 223 -130 0
230 -4 -7 -115 128 -225 0
230 -4 -7 -207 224 -131 0
230 -4 -7 -115 129 -226 0
230 -4 -7 -207 225 -132 0
230 -4 -7 -115 130 -227 0
230 -4 -7 -207 226 -133 0
230 -4 -7 -115 131 -228 0
230 -4 -7 -207 227 -134 0
230 -4 -7 -115 132 -229 0
230 -4 -7 -207 228 -135 0
230 -4 -7 -115 133 -230 0
230 -4 -7 -115 134 -231 0
230 -5 -6 144 176 145 177 0
230 -5 -6 -144 -180 0
230 -5 -6 -144 -181 0
230 -5 -6 -144 -182 0
230 -5 -6 -176 -148 0
230 -5 -6 -176 -149 0
230 -5 -6 -176 -150 0
230 -5 -6 -176 -151 0
230 -5 -6 -145 -190 0
230 -5 -6 -145 -191 0
230 -5 -6 -145 -192 0
230 -5 -6 -145 -193 0
230 -5 -6 -145 -194 0
230 -5 -6 -145 -195 0
230 -5 -6 -145 -196 0
230 -5 -6 -145 -197 0
230 -5 -6 -177 -158 0
230 -5 -6 -144 148 -183 0
230 -5 -6 -176 180 -152 0
230 -5 -6 -144 149 -184 0
230 -5 -6 -176 181 -153 0
230 -5 -6 -144 150 -185 0
230 -5 -6 -176 182 -154 0
230 -5 -6 -144 151 -186 0
230 -5 -6 -176 183 -155 0
230 -5 -6 -144 152 -187 0
230 -5 -6 -176 184 -156 0
230 -5 -6 -144 153 -188 0
230 -5 -6 -176 185 -157 0
230 -5 -6 -144 154 -189 0
230 -5 -6 -145 158 -198 0
230 -5 -6 -177 190 -159 0
230 -5 -6 -145 159 -199 0
230 -5 -6 -177 191 -160 0
230 -5 -7 146 208 0
230 -5 -7 -146 -212 0
230 -5 -7 -146 -213 0
230 -5 -7 -146 -214 0
230 -5 -7 -208 -148 0
230 -5 -7 -208 -149 0
230 -5 -7 -208 -150 0
230 -5 -7 -208 -151 0
230 -5 -7 -208 -152 0
230 -5 -7 -208 -153 0
230 -5 -7 -208 -154 0
230 -5 -7 -146 148 -215 0
230 -5 -7 -208 212 -155 0
230 -5 -7 -146 149 -216 0
230 -5 -7 -208 213 -156 0
230 -5 -7 -146 150 -217 0
230 -5 -7 -208 214 -157 0
230 -5 -7 -146 151 -218 0
230 -5 -7 -146 152 -219 0
230 -5 -7 -146 153 -220 0
230 -5 -7 -146 154 -221 0
230 -6 -7 179 211 0
230 -6 -7 -179 -222 0
230 -6 -7 -211 -190 0
230 -6 -7 -211 -191 0
230 -6 -7 -211 -192 0
230 -6 -7 -179 190 -223 0
230 -6 -7 -211 222 -193 0
230 -6 -7 -179 191 -224 0
230 -6 -7 -211 223 -194 0
230 -6 -7 -179 192 -225 0
230 -6 -7 -211 224 -195 0
230 -6 -7 -179 193 -226 0
230 -6 -7 -211 225 -196 0
230 -6 -7 -179 194 -227 0
230 -6 -7 -211 226 -197 0
230 -6 -7 -179 195 -228 0
230 -6 -7 -211 227 -198 0
230 -6 -7 -179 196 -229 0
230 -6 -7 -211 228 -199 0
230 -6 -7 -179 197 -230 0
230 -6 -7 -179 198 -231 0
230 -6 -7 178 210 179 211 0
230 -6 -7 -178 -212 0
230 -6 -7 -178 -213 0
230 -6 -7 -178 -214 0
230 -6 -7 -178 -215 0
230 -6 -7 -210 -180 0
230 -6 -7 -210 -181 0
230 -6 -7 -210 -182 0
230 -6 -7 -210 -183 0
230 -6 -7 -210 -184 0
230 -6 -7 -210 -185 0
230 -6 -7 -210 -186 0
230 -6 -7 -179 -222 0
230 -6 -7 -211 -190 0
230 -6 -7 -211 -191 0
230 -6 -7 -211 -192 0
230 -6 -7 -178 180 -216 0
230 -6 -7 -210 212 -187 0
230 -6 -7 -178 181 -217 0
230 -6 -7 -210 213 -188 0
230 -6 -7 -178 182 -218 0
230 -6 -7 -210 214 -189 0
230 -6 -7 -178 183 -219 0
230 -6 -7 -178 184 -220 0
230 -6 -7 -178 185 -221 0
230 -6 -7 -179 190 -223 0
230 -6 -7 -211 222 -193 0
230 -6 -7 -179 191 -224 0
230 -6 -7 -211 223 -194 0
230 -6 -7 -179 192 -225 0
230 -6 -7 -211 224 -195 0
230 -6 -7 -179 193 -226 0
230 -6 -7 -211 225 -196 0
230 -6 -7 -179 194 -227 0
230 -6 -7 -211 226 -197 0
230 -6 -7 -179 195 -228 0
230 -6 -7 -211 227 -198 0
230 -6 -7 -179 196 -229 0
230 -6 -7 -211 228 -199 0
230 -6 -7 -179 197 -230 0
230 -6 -7 -179 198 -231 0
230 29 -1 0
230 30 -1 0
230 31 -1 0
230 32 -1 0
230 33 -1 0
230 34 -1 0
230 35 -1 0
230 36 -1 0
230 37 -1 0
230 38 -1 0
230 39 -1 0
230 57 -2 0
230 58 -2 0
230 59 -2 0
230 60 -2 0
230 61 -2 0
230 69 -2 0
230 70 -2 0
230 71 -2 0
230 85 -3 0
230 86 -3 0
230 87 -3 0
230 88 -3 0
230 89 -3 0
230 90 -3 0
230 91 -3 0
230 92 -3 0
230 93 -3 0
230 101 -3 0
230 102 -3 0
230 103 -3 0
230 120 -4 0
230 121 -4 0
230 122 -4 0
230 123 -4 0
230 124 -4 0
230 125 -4 0
230 135 -4 0
230 155 -5 0
230 156 -5 0
230 157 -5 0
230 160 -5 0
230 161 -5 0
230 162 -5 0
230 163 -5 0
230 164 -5 0
230 165 -5 0
230 166 -5 0
230 167 -5 0
230 186 -6 0
230 187 -6 0
230 188 -6 0
230 189 -6 0
230 199 -6 0
230 215 -7 0
230 216 -7 0
230 217 -7 0
230 218 -7 0
230 219 -7 0
230 220 -7 0
230 221 -7 0
230 229 -7 0
230 230 -7 0
230 231 -7 0
